30
0   102   101
1   103   101
2   104   104
3   104   104
4   102   101
5   104   101
6   104   104
7   101   104
8   103   102
9   101   103
10   51   51
11   51   51
12   54   52
13   54   51
14   52   54
15   54   52
16   53   52
17   52   54
18   53   51
19   54   51
20   2   3
21   1   3
22   4   2
23   3   3
24   4   4
25   1   4
26   2   4
27   4   2
28   3   3
29   1   4
200
